\ Model Cutting Stock Problem with Minimum Waste and Maximum Utilization
\ LP format - for model browsing. Use MPS format to capture full model detail.
Minimize
  - 8017.7948 x[0] - 56408.49069999999 x[1] - 87168.58100000001 x[2]
   - 22788.2 x[3] - 67699.34179999999 x[4] - 49455.4109 x[5]
   + 5.6898521887999997e+06 Constant
Subject To
 R0: 8018.7948 x[0] <= 384902.1504
 R1: 56409.49069999999 x[1] <= 1.1845993047e+06
 R2: 87169.58100000001 x[2] <= 8.1067710329999998e+06
 R3: 22789.2 x[3] <= 2.164974e+06
 R4: 67700.34179999999 x[4] <= 5.0775256349999998e+06
 R5: 49456.4109 x[5] <= 2.2255384904999998e+06
 R6: 8018.7948 x[0] + 56409.49069999999 x[1] + 87169.58100000001 x[2]
   + 22789.2 x[3] + 67700.34179999999 x[4] + 49456.4109 x[5]
   <= 5.6898521887999997e+06
Bounds
 Constant = 1
End
